c User generated cnf file
p cnf 7 38
5 6 -3 0 
4 6 -1 0 
2 3 -4 0 
5 5 -5 0 
5 5 -6 0 
2 7 -6 0 
6 -1 4 0 
2 7 -5 0 
7 -6 3 0 
1 -3 1 0 
6 1 -7 0 
7 4 -4 0 
2 1 -5 0 
4 -2 4 0 
3 -6 6 0 
1 6 -2 0 
2 5 -7 0 
5 5 -5 0 
5 3 -7 0 
4 1 -6 0 
7 1 -3 0 
7 7 -4 0 
2 4 -5 0 
5 -1 3 0 
2 7 -5 0 
5 -5 4 0 
6 -1 2 0 
7 7 -7 0 
7 -3 1 0 
7 -7 5 0 
3 -6 1 0 
6 -1 2 0 
5 -7 1 0 
3 4 -3 0 
1 2 -4 0 
3 5 -5 0 
2 -6 6 0 
5 -7 3 0 
